(set-logic QF_BV)
(declare-fun _substvar_47_ () (_ BitVec 79))
(declare-fun _substvar_172_ () (_ BitVec 79))
(declare-fun _substvar_162_ () (_ BitVec 79))
(declare-fun _substvar_155_ () (_ BitVec 79))
(declare-fun _substvar_222_ () Bool)
(assert (and true true true true true true true true true true true true (= _substvar_155_ (_ bv0 79)) (ite _substvar_222_ (= _substvar_162_ (_ bv0 79)) (= _substvar_162_ (concat (_ bv0 78) (bvxor (_ bv0 1) ((_ extract 69 69) _substvar_155_))))) (= _substvar_172_ (concat ((_ extract 77 0) _substvar_162_) (bvxor ((_ extract 78 78) _substvar_162_) ((_ extract 69 69) _substvar_162_)))) (= _substvar_47_ (concat ((_ extract 77 0) _substvar_172_) (_ bv0 1))) true true true true true true true true true true true true true true true true true true true true true true true true true true true true true true true true true true true true true true true true true true true true true true true true true true true true true true true true true true (= (= _substvar_47_ (_ bv0 79)) false)))
(check-sat)
(exit)
